# Objective value = 19
WA1n 0
WA1p 0
WA2n 1
WA2p 0
WB1n 0
WB1p 0
WB2n 1
WB2p 0
WC1n 1
WC1p 0
WD1n 0
WD1p 1
WE1n 0
WE1p 1
WF1n 3
WF1p 0
WF2n 1
WF2p 0
WG1n 5
WG1p 0
WG2n 0
WG2p 0
WT1n 2
WT1p 0
100 103
a 1
b 1
c 1
d 1
e 1
f 1
g 1
h 1
i 1
j 0
k 0
l 1
